
******************************************************************************
This program contains Ipopt, a library for large-scale nonlinear optimization.
 Ipopt is released as open source code under the Eclipse Public License (EPL).
         For more information visit http://projects.coin-or.org/Ipopt
******************************************************************************

This is Ipopt version trunk, running with linear solver mumps.
NOTE: Other linear solvers might be more efficient (see Ipopt documentation).

Number of nonzeros in equality constraint Jacobian...:   330624
Number of nonzeros in inequality constraint Jacobian.:        0
Number of nonzeros in Lagrangian Hessian.............:        0

Total number of variables............................:      656
                     variables with only lower bounds:        0
                variables with lower and upper bounds:      656
                     variables with only upper bounds:        0
Total number of equality constraints.................:      504
Total number of inequality constraints...............:        0
        inequality constraints with only lower bounds:        0
   inequality constraints with lower and upper bounds:        0
        inequality constraints with only upper bounds:        0

iter    objective    inf_pr   inf_du lg(mu)  ||d||  lg(rg) alpha_du alpha_pr  ls
   0  1.7910792e+00 1.81e+00 1.06e-01   0.0 0.00e+00    -  0.00e+00 0.00e+00   0
   1  2.0350115e+00 8.77e-09 2.80e-01  -1.0 6.46e-01    -  9.90e-01 1.00e+00h  1
   2  1.8851582e+00 1.38e-09 1.33e-01  -3.0 1.86e-01    -  9.90e-01 1.00e+00f  1
   3  1.8850861e+00 1.36e-09 1.28e-01  -5.0 2.53e-01    -  9.90e-01 3.12e-02f  6
   4  1.8847023e+00 1.31e-09 1.16e-01  -3.1 3.53e-01    -  9.98e-01 6.25e-02f  5
   5  1.8847023e+00 1.31e-09 1.16e-01  -4.9 3.05e-01    -  1.00e+00 4.55e-13h 42
   6  1.8847023e+00 1.31e-09 1.16e-01  -5.0 3.82e-01    -  1.00e+00 5.68e-14h 45
Restoration phase is called at point that is almost feasible,
  with constraint violation 1.453232e-08. Abort.

Number of Iterations....: 6

                                   (scaled)                 (unscaled)
Objective...............:   1.8847023275645860e+00    1.8847023275645860e+00
Dual infeasibility......:   1.1628475726448741e-01    1.1628475726448741e-01
Constraint violation....:   1.3099906159830255e-09    1.3099906159830255e-09
Complementarity.........:   1.0436340966669190e-05    1.0436340966669190e-05
Overall NLP error.......:   1.1628475726448741e-01    1.1628475726448741e-01


Number of objective function evaluations             = 178
Number of objective gradient evaluations             = 8
Number of equality constraint evaluations            = 178
Number of inequality constraint evaluations          = 0
Number of equality constraint Jacobian evaluations   = 8
Number of inequality constraint Jacobian evaluations = 0
Number of Lagrangian Hessian evaluations             = 0
Total CPU secs in IPOPT (w/o function evaluations)   =      5.465
Total CPU secs in NLP function evaluations           =      2.078

EXIT: Restoration Failed!
